32      4       
10      10      10      9       
0       0       0       0       0       3       2       3       4       
7       0       7       0       1       3       6       9       10      
10      0       9       0       0       2       8       14      
8       0       8       10      0       3       5       7       21      
3       0       0       7       0       1       22      
7       8       0       3       8       1       18      
10      5       4       0       8       2       17      24      
3       9       7       0       0       3       12      23      28      
3       10      0       8       0       1       19      
1       7       0       0       6       3       11      13      15      
2       0       5       3       0       1       25      
8       7       4       4       0       2       18      30      
8       10      8       0       0       1       20      
9       1       0       0       1       1       22      
1       0       1       0       0       2       16      26      
1       0       4       1       0       1       30      
1       7       0       0       0       1       29      
5       0       10      5       4       1       22      
9       6       0       0       0       2       27      29      
7       0       9       3       0       1       24      
7       9       0       0       1       1       28      
1       0       0       0       9       1       31      
10      1       2       2       2       1       27      
4       1       3       10      2       1       25      
5       0       0       0       3       2       26      29      
5       2       0       0       0       1       28      
1       5       0       0       2       2       30      31      
3       6       0       10      2       1       31      
2       0       0       8       9       1       32      
3       9       1       0       6       1       32      
7       0       4       0       0       1       32      
0       0       0       0       0       0       